eastwest = 7;
northsouth = 9;
cost = [|    1, 1, 1,    1,    1,    1, -100
 |    1, 1, 1,    1,    1,    1,    1
 |    1, 1, 1,    1,    1,    1,    1
 |    1, 1, 1,    1, -100, -100, -100
 |    1, 1, 1,    1,    1,    1, -100
 |    1, 1, 1,    1,    1,    1,    1
 |    1, 1, 1, -100,    1,    1,    1
 |    1, 1, 1,    1,    1,    1,    1
 | -100, 1, 1,    1,    1,    1, -100
 |];
ore = [| 0, 0, 6, 0, 0, 3, 0
 | 2, 0, 3, 0, 0, 6, 0
 | 6, 0, 0, 2, 0, 0, 2
 | 0, 3, 0, 0, 0, 0, 0
 | 0, 0, 0, 2, 0, 2, 0
 | 0, 0, 0, 3, 0, 0, 0
 | 6, 0, 6, 0, 0, 0, 3
 | 3, 0, 0, 0, 0, 0, 6
 | 0, 2, 0, 6, 0, 2, 0
 |];
budget = 16;
length = 16;
start = [(1,1)];
